# Generated by ConicBenchmarkUtilities.jl
VER
2

OBJSENSE
MIN

VAR
42 1
F 42

INT
33
0
1
2
3
4
5
6
7
8
9
10
11
12
13
14
15
16
18
19
20
21
22
23
24
25
26
27
28
29
30
31
32
33

CON
115 107
L= 1
L+ 1
L+ 1
L+ 1
L+ 1
L+ 1
L+ 1
L+ 1
L+ 1
L+ 1
L+ 1
L= 1
L= 1
L+ 1
L+ 1
L= 1
L= 1
L= 1
L= 1
L+ 1
L+ 1
L+ 1
L+ 1
Q 3
L+ 1
L+ 1
Q 3
L+ 1
L+ 1
L+ 1
Q 3
L+ 1
L+ 1
Q 3
L+ 1
L+ 1
L+ 1
L+ 1
L+ 1
L+ 1
L+ 1
L+ 1
L+ 1
L+ 1
L+ 1
L+ 1
L+ 1
L+ 1
L+ 1
L+ 1
L+ 1
L+ 1
L+ 1
L+ 1
L+ 1
L+ 1
L+ 1
L+ 1
L+ 1
L+ 1
L+ 1
L+ 1
L+ 1
L+ 1
L+ 1
L+ 1
L+ 1
L+ 1
L+ 1
L+ 1
L+ 1
L+ 1
L+ 1
L+ 1
L+ 1
L+ 1
L+ 1
L+ 1
L+ 1
L+ 1
L+ 1
L+ 1
L+ 1
L+ 1
L+ 1
L+ 1
L+ 1
L+ 1
L+ 1
L+ 1
L+ 1
L+ 1
L+ 1
L+ 1
L+ 1
L+ 1
L+ 1
L+ 1
L+ 1
L+ 1
L+ 1
L+ 1
L+ 1
L+ 1
L+ 1
L+ 1
L+ 1

OBJACOORD
1
17 1.0

ACOORD
304
0 0 0.1
7 0 -1.0
9 0 8.0
45 0 1.0
46 0 -1.0
0 1 0.2
8 1 -1.0
10 1 7.0
47 1 1.0
48 1 -1.0
0 2 1.0
7 2 1.0
9 2 -1.0
11 2 -3.0
13 2 -1.0
33 2 -1.0
44 2 -1.0
57 2 1.0
58 2 -1.0
0 3 2.0
7 3 2.0
9 3 -2.0
11 3 -8.0
13 3 -1.0
33 3 -2.0
44 3 -2.0
59 3 1.0
60 3 -1.0
0 4 3.0
7 4 3.0
9 4 -3.0
11 4 -15.0
13 4 -1.0
33 4 -3.0
44 4 -3.0
61 4 1.0
62 4 -1.0
0 5 4.0
7 5 4.0
9 5 -4.0
11 5 -24.0
13 5 -1.0
33 5 -4.0
44 5 -4.0
63 5 1.0
64 5 -1.0
0 6 5.0
7 6 5.0
9 6 -5.0
11 6 -35.0
13 6 -1.0
33 6 -5.0
44 6 -5.0
65 6 1.0
66 6 -1.0
0 7 6.0
7 7 6.0
9 7 -6.0
11 7 -48.0
13 7 -1.0
33 7 -6.0
44 7 -6.0
67 7 1.0
68 7 -1.0
0 8 7.0
7 8 7.0
9 8 -7.0
11 8 -63.0
13 8 -1.0
33 8 -7.0
44 8 -7.0
69 8 1.0
70 8 -1.0
0 9 8.0
7 9 8.0
9 9 -8.0
11 9 -80.0
13 9 -1.0
33 9 -8.0
44 9 -8.0
71 9 1.0
72 9 -1.0
0 10 1.0
8 10 1.0
10 10 -1.0
12 10 -3.0
14 10 -1.0
33 10 -1.0
44 10 -1.0
73 10 1.0
74 10 -1.0
0 11 2.0
8 11 2.0
10 11 -2.0
12 11 -8.0
14 11 -1.0
33 11 -2.0
44 11 -2.0
75 11 1.0
76 11 -1.0
0 12 3.0
8 12 3.0
10 12 -3.0
12 12 -15.0
14 12 -1.0
33 12 -3.0
44 12 -3.0
77 12 1.0
78 12 -1.0
0 13 4.0
8 13 4.0
10 13 -4.0
12 13 -24.0
14 13 -1.0
33 13 -4.0
44 13 -4.0
79 13 1.0
80 13 -1.0
0 14 5.0
8 14 5.0
10 14 -5.0
12 14 -35.0
14 14 -1.0
33 14 -5.0
44 14 -5.0
81 14 1.0
82 14 -1.0
0 15 6.0
8 15 6.0
10 15 -6.0
12 15 -48.0
14 15 -1.0
33 15 -6.0
44 15 -6.0
83 15 1.0
84 15 -1.0
0 16 7.0
8 16 7.0
10 16 -7.0
12 16 -63.0
14 16 -1.0
33 16 -7.0
44 16 -7.0
85 16 1.0
86 16 -1.0
0 17 -1.0
1 18 -460.0
3 18 460.0
5 18 -1.0
15 18 -3.0
19 18 -1.0
33 18 -1.0
87 18 1.0
88 18 -1.0
1 19 -920.0
3 19 920.0
5 19 -2.0
15 19 -8.0
19 19 -1.0
33 19 -2.0
89 19 1.0
90 19 -1.0
1 20 -1380.0
3 20 1380.0
5 20 -3.0
15 20 -15.0
19 20 -1.0
33 20 -3.0
91 20 1.0
92 20 -1.0
1 21 -1840.0
3 21 1840.0
5 21 -4.0
15 21 -24.0
19 21 -1.0
33 21 -4.0
93 21 1.0
94 21 -1.0
1 22 -570.0
3 22 570.0
5 22 -1.0
17 22 -3.0
21 22 -1.0
44 22 -1.0
103 22 1.0
104 22 -1.0
1 23 -1140.0
3 23 1140.0
5 23 -2.0
17 23 -8.0
21 23 -1.0
44 23 -2.0
105 23 1.0
106 23 -1.0
1 24 -1710.0
3 24 1710.0
5 24 -3.0
17 24 -15.0
21 24 -1.0
44 24 -3.0
107 24 1.0
108 24 -1.0
2 25 -460.0
4 25 460.0
6 25 -1.0
16 25 -3.0
20 25 -1.0
33 25 -1.0
95 25 1.0
96 25 -1.0
2 26 -920.0
4 26 920.0
6 26 -2.0
16 26 -8.0
20 26 -1.0
33 26 -2.0
97 26 1.0
98 26 -1.0
2 27 -1380.0
4 27 1380.0
6 27 -3.0
16 27 -15.0
20 27 -1.0
33 27 -3.0
99 27 1.0
100 27 -1.0
2 28 -1840.0
4 28 1840.0
6 28 -4.0
16 28 -24.0
20 28 -1.0
33 28 -4.0
101 28 1.0
102 28 -1.0
2 29 -570.0
4 29 570.0
6 29 -1.0
18 29 -3.0
22 29 -1.0
44 29 -1.0
109 29 1.0
110 29 -1.0
2 30 -1140.0
4 30 1140.0
6 30 -2.0
18 30 -8.0
22 30 -1.0
44 30 -2.0
111 30 1.0
112 30 -1.0
2 31 -1710.0
4 31 1710.0
6 31 -3.0
18 31 -15.0
22 31 -1.0
44 31 -3.0
113 31 1.0
114 31 -1.0
11 32 1.0
23 32 1.0
24 32 -1.0
26 32 1.0
34 32 1.0
35 32 -1.0
37 32 1.0
49 32 1.0
50 32 -1.0
12 33 1.0
28 33 1.0
29 33 -1.0
31 33 1.0
39 33 1.0
40 33 -1.0
42 33 1.0
51 33 1.0
52 33 -1.0
15 34 1.0
23 34 1.0
24 34 1.0
27 34 1.0
53 34 1.0
16 35 1.0
28 35 1.0
29 35 1.0
32 35 1.0
54 35 1.0
17 36 1.0
34 36 1.0
35 36 1.0
38 36 1.0
55 36 1.0
18 37 1.0
39 37 1.0
40 37 1.0
43 37 1.0
56 37 1.0
25 38 2.0
33 38 1.0
30 39 2.0
33 39 1.0
36 40 2.0
44 40 1.0
41 41 2.0
44 41 1.0

BCOORD
59
1 1900.0
2 1900.0
3 -1700.0
4 -1700.0
5 5.0
6 5.0
11 -1.0
12 -1.0
13 1.0
14 1.0
15 -1.0
16 -1.0
17 -1.0
18 -1.0
19 1.0
20 1.0
21 1.0
22 1.0
33 -10.0
44 -9.0
46 1.0
48 1.0
49 -1.0
50 100.0
51 -1.0
52 100.0
53 -1.0
54 -1.0
55 -1.0
56 -1.0
58 1.0
60 1.0
62 1.0
64 1.0
66 1.0
68 1.0
70 1.0
72 1.0
74 1.0
76 1.0
78 1.0
80 1.0
82 1.0
84 1.0
86 1.0
88 1.0
90 1.0
92 1.0
94 1.0
96 1.0
98 1.0
100 1.0
102 1.0
104 1.0
106 1.0
108 1.0
110 1.0
112 1.0
114 1.0
